c Random 8-CNF over 30 variables and 240 clauses
c Generated with `cnfgen`
c (C) 2012-2016 Massimo Lauria <lauria.massimo@gmail.com>
c https://massimolauria.github.io/cnfgen
c
c COMMAND LINE: cnfgen --output tmp-8-30-240.dimacs --output-format dimacs randkcnf 8 30 240
c
c sdimacs generated by gen-sdimacs
c
p cnf 30 240
e 16 17 18 19 20 21 22 23 24 25 26 27 28 29 30 0
r 0.37 1 2 3 4 5 6 7 8 9 10 11 12 13 14 15 0
-3 6 -9 -13 16 17 19 21 0
2 5 -6 9 -13 21 27 30 0
2 -10 -16 21 22 -25 27 30 0
8 -11 12 15 -17 -21 23 29 0
-3 -12 15 18 -19 23 -26 -28 0
-2 8 -10 15 -19 -21 -24 -27 0
1 -5 -9 10 -20 21 -26 27 0
-3 8 -9 13 14 -19 21 -29 0
-1 -5 6 -7 -8 -17 -22 28 0
3 6 8 -9 13 24 -27 28 0
3 8 -9 13 14 -25 -26 -29 0
4 -10 14 20 -24 25 26 -30 0
-2 -4 -13 16 18 -21 -22 -23 0
-10 -13 16 20 -22 25 26 -28 0
2 -6 -7 -8 10 14 23 -26 0
-7 -11 13 16 21 22 24 25 0
1 -9 13 16 -17 18 -24 25 0
-1 -3 -6 12 17 19 -26 -27 0
1 3 -7 -13 14 -17 19 23 0
-6 -10 11 13 14 18 -26 30 0
1 6 -9 -15 22 23 -27 -28 0
1 -9 -10 -13 -18 25 -27 -28 0
1 -3 -9 -11 16 17 -28 -29 0
4 -9 14 -15 -16 -18 25 -28 0
-2 4 5 8 -12 -14 19 29 0
1 -6 9 -16 -21 -23 -28 -29 0
5 -6 -11 16 17 18 -19 25 0
-1 5 6 12 -20 -24 26 27 0
7 10 12 -13 -17 -24 27 29 0
-1 7 9 12 -14 -24 28 29 0
-3 6 -9 14 18 -19 26 -29 0
-7 -9 15 18 19 20 -22 26 0
-3 9 -12 14 19 -21 22 -29 0
3 -4 -14 16 17 -24 29 30 0
1 3 -4 -9 15 16 -21 22 0
-2 4 -12 20 -21 -23 -26 30 0
-1 2 7 -10 -12 -22 24 26 0
-2 -6 7 -14 17 -19 -21 29 0
2 -4 -6 10 11 -20 22 -30 0
3 16 18 21 22 24 26 -28 0
6 -15 -18 -20 22 -24 -25 28 0
9 -10 -12 -16 19 24 -28 -30 0
-4 6 -10 13 -17 -19 -20 -21 0
5 -12 -16 -17 20 21 -25 -27 0
-2 11 12 -18 21 -22 25 -26 0
5 -7 -9 15 -17 18 24 -30 0
14 -15 17 -18 23 24 29 30 0
2 -3 10 21 -22 -23 -25 26 0
-3 5 12 -13 -14 -16 28 30 0
2 -6 7 -10 14 -19 -25 28 0
6 -12 16 -20 21 -22 -24 -27 0
3 -4 -5 -8 9 15 18 23 0
1 -2 17 -18 -20 21 24 -28 0
-5 6 10 13 14 15 -17 -28 0
-3 4 -9 -15 20 -27 28 -30 0
3 10 16 -17 18 -21 25 28 0
1 9 -10 -22 24 -26 -28 29 0
2 7 8 10 -13 23 27 30 0
11 12 18 -19 -20 -22 24 26 0
-2 3 4 -10 -17 18 25 28 0
-3 -4 9 -10 14 16 -21 -24 0
1 6 9 11 -15 -23 24 -26 0
4 14 17 -21 22 24 27 -29 0
-2 4 -6 11 -14 19 -28 -29 0
-2 -6 -12 13 -16 -17 24 26 0
-3 -8 -10 -13 14 -17 18 -20 0
-2 3 -9 11 -12 -17 19 24 0
-3 -4 7 19 -21 26 27 -29 0
-1 -2 4 16 -19 -23 -26 -30 0
-2 -4 6 10 -14 -16 17 -23 0
-4 -5 8 17 19 26 28 29 0
-2 -6 11 15 18 20 28 30 0
-3 -8 17 -20 25 28 -29 30 0
-7 -8 12 16 -18 24 26 29 0
-1 3 -7 -12 13 18 23 -26 0
1 3 6 13 15 -19 -23 29 0
3 -8 -11 -12 17 -18 -22 23 0
-4 7 14 18 -20 -26 -27 -29 0
-1 6 8 14 -16 18 28 -30 0
-4 -6 12 -13 16 -19 24 30 0
1 -6 7 9 16 -21 -25 30 0
1 5 -7 15 -18 -22 26 30 0
3 4 -10 -11 -12 -15 23 27 0
1 10 13 -15 17 23 25 -28 0
-1 -2 -8 -12 16 26 -27 28 0
-2 6 -10 19 21 -22 -23 -27 0
4 -7 12 -15 20 25 -28 -30 0
-8 -13 -16 17 20 21 25 29 0
3 4 -11 -14 16 17 -27 29 0
-3 -7 -14 -15 -18 -25 27 -29 0
1 2 -6 12 -14 -15 17 -25 0
-5 -9 -11 -14 -22 -23 -25 29 0
7 9 15 -19 -20 -26 27 -29 0
3 -4 6 12 13 -15 25 27 0
4 -6 7 8 -10 11 -13 29 0
-5 -8 10 -14 18 20 22 26 0
4 6 10 -20 21 25 26 -30 0
2 4 -11 -12 -14 17 -24 -29 0
3 -7 -8 13 21 -22 23 -27 0
-9 -10 -13 -16 -23 24 28 29 0
1 -9 13 15 22 25 -27 -28 0
-1 -2 -12 -19 21 -23 24 -28 0
-7 12 17 19 -21 -26 -27 -28 0
-1 -7 9 13 15 -19 20 -25 0
3 16 -19 -22 23 26 27 -28 0
-4 -9 -10 11 -13 15 19 28 0
-12 -17 19 20 23 -25 27 28 0
-4 11 16 -22 -25 26 -27 -29 0
4 5 7 -10 -11 -15 -24 26 0
2 6 -8 12 15 17 -20 -27 0
-5 -6 7 9 -11 13 -18 -28 0
3 5 9 -12 21 -23 -24 -28 0
-3 -12 -17 20 -23 24 27 30 0
-9 11 12 14 -16 -18 20 -21 0
2 6 -11 -12 -17 23 24 25 0
-13 14 -15 -16 17 21 -23 29 0
1 -4 9 -10 -21 23 -24 -26 0
-9 13 -14 15 17 -21 -24 28 0
-3 -4 -12 14 -15 -21 -23 29 0
2 -7 9 -12 -13 -17 20 26 0
6 -8 11 14 -15 -17 19 -27 0
12 -16 17 -19 23 25 26 27 0
-1 2 4 10 11 20 -28 29 0
2 7 12 15 -18 -22 24 28 0
7 10 -11 12 17 -19 20 24 0
1 -2 -3 7 12 15 -23 -28 0
4 -5 10 -17 -20 -22 -26 -28 0
5 -11 -18 -19 -22 25 -26 28 0
-2 -4 6 -11 12 26 -27 -29 0
2 -5 -16 -18 -19 25 -26 -28 0
-1 2 -3 -8 15 22 23 24 0
-3 6 10 -12 -17 26 -28 29 0
-3 -6 -8 14 -16 26 27 -30 0
-6 -8 -10 12 -13 14 -15 -18 0
-3 -10 13 -15 -18 -19 -20 25 0
3 9 14 16 17 24 27 28 0
-2 -3 -9 10 -20 -26 29 30 0
4 5 8 13 -15 -27 -28 29 0
2 -3 6 -8 -17 18 -22 -29 0
11 -16 -19 24 -25 27 -28 -30 0
1 8 11 -21 -23 -26 27 -29 0
-2 -13 15 17 21 22 -24 -25 0
-1 -9 11 -17 18 -20 -26 -30 0
-2 3 -7 -9 13 -16 -19 29 0
-8 15 16 -18 -22 -26 -27 -28 0
1 7 9 -13 14 24 -25 -26 0
-2 -6 7 9 -13 -25 26 -27 0
1 6 -9 -15 16 20 24 26 0
1 -3 6 8 -13 17 -19 -22 0
10 -11 13 16 -18 -26 29 -30 0
-1 5 7 10 17 19 23 -26 0
-2 -5 7 -14 -19 24 -25 29 0
2 3 -6 -10 -15 18 26 29 0
4 -5 6 8 16 -17 -26 -29 0
-1 -2 -5 -17 19 -20 22 -25 0
-2 3 5 -7 -11 12 26 -27 0
4 -8 11 16 -19 21 23 -26 0
-1 -2 4 -5 9 -10 15 26 0
4 5 -7 12 -14 -21 -25 30 0
3 -7 8 -11 -13 17 27 28 0
1 2 -3 -8 12 14 -22 -29 0
1 -3 -5 8 -11 15 -19 -27 0
1 2 -11 -12 -15 -16 -24 26 0
2 -8 -12 14 -15 23 24 26 0
7 -8 16 -19 23 24 25 29 0
10 -13 -16 17 -18 -24 25 29 0
2 -8 -10 -18 -19 -24 -25 30 0
-1 -3 7 10 -19 -21 -23 29 0
1 2 -5 6 -11 -16 -17 -26 0
5 -8 -12 13 -17 19 -23 30 0
5 8 -19 -21 -24 27 -28 -30 0
2 -6 12 14 -16 -21 -24 26 0
-2 -8 11 13 15 19 20 25 0
1 4 5 8 13 14 18 -23 0
-4 -7 -8 -9 -10 -21 -24 -29 0
-6 10 -13 -14 17 22 27 -28 0
1 5 -8 -10 15 -18 23 -25 0
-7 -9 -11 -12 13 -18 -25 27 0
1 -7 -8 11 -17 -22 -23 -28 0
-2 3 4 -8 13 15 18 -25 0
-2 4 -10 -11 15 20 -28 -29 0
6 -23 24 -25 -26 28 -29 -30 0
-3 4 -5 6 16 22 -26 -29 0
3 -6 -18 -20 -21 27 -28 29 0
2 7 12 14 18 -19 -20 22 0
1 3 4 8 10 14 20 27 0
7 -10 -11 19 21 23 24 -30 0
-3 -4 6 -7 12 13 18 22 0
-8 9 -14 -20 -21 -24 29 30 0
-3 4 -5 -8 12 20 23 -24 0
2 -3 -7 -11 -14 18 20 24 0
2 -7 -10 11 -13 -17 19 -22 0
-1 10 -16 21 23 -25 -26 30 0
-1 7 -8 9 -16 18 26 27 0
-6 -8 12 -16 -20 26 28 29 0
-8 18 19 -20 -21 -24 26 -27 0
2 -3 4 -5 -12 -21 -23 26 0
2 4 14 -17 18 -19 -20 -23 0
-3 13 14 16 17 -19 21 -28 0
7 9 -18 -19 -20 -22 -26 29 0
5 9 -13 -16 -18 -24 -25 -29 0
2 6 -7 -8 -13 -25 26 29 0
7 14 18 -19 -21 26 28 -29 0
-2 -3 8 13 -22 -25 27 29 0
2 -9 12 15 16 -18 -25 -27 0
-1 7 -10 -15 17 -21 -22 26 0
-9 11 12 13 -20 -22 24 25 0
1 10 16 19 24 25 26 27 0
-1 -4 -7 -13 17 -18 -20 28 0
-3 8 -16 -20 -23 24 -26 30 0
3 -6 9 11 -14 -19 23 -29 0
-8 -9 -11 -13 14 28 29 30 0
7 12 13 -17 18 21 25 -27 0
-6 -7 -12 -13 18 20 27 -30 0
1 9 -12 -15 19 -20 23 -24 0
-5 10 -13 -18 23 24 -26 -30 0
-2 10 -15 18 21 25 26 27 0
2 5 -13 14 15 21 -24 -28 0
-1 -7 -10 -11 15 17 18 -28 0
7 -14 15 16 -17 21 -24 26 0
9 -11 16 17 -18 -22 23 -26 0
5 9 14 -19 -21 26 -27 28 0
-6 15 19 21 22 -23 27 -29 0
-2 8 -11 -12 -14 18 24 -27 0
-1 13 17 18 19 20 22 -29 0
-1 2 -3 -7 -15 20 26 30 0
2 5 6 9 -10 -13 21 -28 0
-1 -6 -8 11 -12 -17 -26 -28 0
1 -6 12 -13 14 -15 -21 26 0
1 2 3 9 -14 15 -16 -30 0
-3 -6 7 -13 -15 -20 25 30 0
-1 7 10 -17 -20 -22 -28 -29 0
2 5 6 15 19 24 -27 -30 0
-3 -7 -15 18 20 23 -25 30 0
1 4 -6 10 18 -19 24 -25 0
1 -5 9 10 16 22 -23 -29 0
1 3 -4 8 10 16 17 -20 0
6 -11 13 17 -18 20 -22 30 0
-9 12 13 18 -25 26 -29 30 0
2 9 -13 14 15 17 -18 21 0
